c Reduced graph for R50_5g generated by Cyril Grelier
p edge 50 612
e 1 2
e 1 4
e 1 8
e 1 13
e 1 14
e 1 19
e 1 21
e 1 22
e 1 25
e 1 26
e 1 28
e 1 29
e 1 30
e 1 31
e 1 33
e 1 34
e 1 36
e 1 37
e 1 38
e 1 40
e 1 42
e 1 43
e 1 44
e 1 45
e 1 47
e 1 48
e 1 50
e 2 9
e 2 10
e 2 11
e 2 12
e 2 13
e 2 14
e 2 15
e 2 16
e 2 17
e 2 21
e 2 22
e 2 24
e 2 25
e 2 29
e 2 30
e 2 31
e 2 33
e 2 36
e 2 38
e 2 43
e 2 45
e 2 47
e 2 48
e 2 49
e 3 4
e 3 7
e 3 8
e 3 9
e 3 11
e 3 14
e 3 17
e 3 22
e 3 24
e 3 27
e 3 28
e 3 30
e 3 31
e 3 32
e 3 33
e 3 36
e 3 39
e 3 40
e 3 41
e 3 43
e 3 44
e 3 46
e 3 48
e 3 50
e 4 6
e 4 7
e 4 8
e 4 9
e 4 10
e 4 13
e 4 14
e 4 15
e 4 17
e 4 19
e 4 21
e 4 22
e 4 25
e 4 28
e 4 29
e 4 30
e 4 32
e 4 33
e 4 41
e 4 44
e 4 47
e 4 48
e 5 9
e 5 12
e 5 13
e 5 14
e 5 16
e 5 18
e 5 19
e 5 21
e 5 22
e 5 26
e 5 27
e 5 28
e 5 29
e 5 30
e 5 33
e 5 35
e 5 36
e 5 39
e 5 40
e 5 43
e 5 44
e 5 46
e 5 47
e 5 49
e 6 7
e 6 10
e 6 12
e 6 14
e 6 16
e 6 17
e 6 20
e 6 21
e 6 22
e 6 23
e 6 26
e 6 27
e 6 28
e 6 29
e 6 30
e 6 33
e 6 34
e 6 35
e 6 42
e 6 44
e 6 45
e 6 48
e 6 50
e 7 8
e 7 9
e 7 12
e 7 13
e 7 15
e 7 16
e 7 25
e 7 26
e 7 28
e 7 29
e 7 30
e 7 32
e 7 33
e 7 34
e 7 40
e 7 43
e 7 44
e 7 46
e 7 47
e 7 49
e 8 10
e 8 13
e 8 18
e 8 19
e 8 21
e 8 24
e 8 25
e 8 27
e 8 28
e 8 29
e 8 31
e 8 35
e 8 36
e 8 37
e 8 38
e 8 43
e 8 44
e 8 45
e 8 46
e 9 13
e 9 15
e 9 16
e 9 20
e 9 22
e 9 24
e 9 25
e 9 28
e 9 29
e 9 30
e 9 37
e 9 39
e 9 42
e 9 43
e 9 46
e 9 49
e 9 50
e 10 12
e 10 16
e 10 20
e 10 23
e 10 24
e 10 25
e 10 28
e 10 29
e 10 30
e 10 31
e 10 33
e 10 37
e 10 38
e 10 39
e 10 40
e 10 42
e 10 43
e 10 45
e 11 12
e 11 13
e 11 14
e 11 15
e 11 16
e 11 19
e 11 26
e 11 27
e 11 30
e 11 31
e 11 33
e 11 34
e 11 39
e 11 40
e 11 42
e 11 48
e 11 50
e 12 13
e 12 14
e 12 17
e 12 21
e 12 23
e 12 25
e 12 26
e 12 27
e 12 28
e 12 29
e 12 30
e 12 31
e 12 32
e 12 33
e 12 34
e 12 36
e 12 37
e 12 38
e 12 40
e 12 43
e 12 44
e 12 45
e 12 46
e 12 47
e 12 48
e 13 14
e 13 15
e 13 16
e 13 17
e 13 18
e 13 21
e 13 22
e 13 24
e 13 25
e 13 28
e 13 30
e 13 34
e 13 39
e 13 40
e 13 41
e 13 44
e 13 46
e 13 47
e 13 48
e 13 49
e 14 17
e 14 18
e 14 22
e 14 24
e 14 26
e 14 28
e 14 29
e 14 30
e 14 32
e 14 35
e 14 36
e 14 37
e 14 42
e 14 44
e 14 45
e 14 46
e 14 47
e 14 49
e 15 17
e 15 19
e 15 22
e 15 23
e 15 24
e 15 26
e 15 27
e 15 28
e 15 29
e 15 30
e 15 32
e 15 35
e 15 36
e 15 37
e 15 38
e 15 40
e 15 41
e 15 44
e 15 46
e 15 48
e 15 49
e 16 17
e 16 18
e 16 20
e 16 22
e 16 25
e 16 27
e 16 30
e 16 31
e 16 33
e 16 34
e 16 36
e 16 37
e 16 39
e 16 43
e 16 45
e 16 46
e 16 49
e 16 50
e 17 20
e 17 21
e 17 24
e 17 25
e 17 26
e 17 27
e 17 31
e 17 33
e 17 34
e 17 35
e 17 37
e 17 39
e 17 44
e 17 46
e 17 48
e 17 50
e 18 21
e 18 23
e 18 27
e 18 28
e 18 32
e 18 33
e 18 34
e 18 35
e 18 36
e 18 39
e 18 40
e 18 45
e 18 46
e 18 47
e 18 50
e 19 21
e 19 24
e 19 27
e 19 29
e 19 31
e 19 38
e 19 39
e 19 41
e 19 42
e 19 43
e 19 45
e 19 46
e 19 47
e 19 50
e 20 21
e 20 22
e 20 26
e 20 28
e 20 29
e 20 30
e 20 31
e 20 32
e 20 34
e 20 35
e 20 36
e 20 37
e 20 44
e 20 48
e 21 22
e 21 23
e 21 24
e 21 26
e 21 29
e 21 30
e 21 33
e 21 34
e 21 35
e 21 37
e 21 38
e 21 40
e 21 41
e 21 44
e 21 47
e 21 50
e 22 23
e 22 25
e 22 28
e 22 29
e 22 32
e 22 34
e 22 35
e 22 36
e 22 41
e 22 42
e 22 43
e 22 45
e 22 47
e 22 48
e 23 24
e 23 25
e 23 26
e 23 28
e 23 29
e 23 32
e 23 34
e 23 35
e 23 36
e 23 37
e 23 38
e 23 39
e 23 43
e 23 44
e 23 45
e 23 46
e 23 48
e 23 49
e 24 26
e 24 28
e 24 29
e 24 32
e 24 33
e 24 36
e 24 37
e 24 40
e 24 41
e 24 43
e 24 44
e 24 49
e 24 50
e 25 27
e 25 32
e 25 33
e 25 35
e 25 37
e 25 38
e 25 43
e 25 44
e 25 45
e 25 47
e 26 28
e 26 31
e 26 32
e 26 34
e 26 38
e 26 41
e 26 42
e 26 45
e 26 47
e 27 28
e 27 31
e 27 32
e 27 33
e 27 35
e 27 45
e 27 46
e 27 48
e 27 49
e 28 29
e 28 30
e 28 31
e 28 33
e 28 34
e 28 37
e 28 38
e 28 39
e 28 41
e 28 42
e 28 44
e 28 45
e 28 46
e 28 47
e 28 48
e 28 49
e 29 30
e 29 31
e 29 34
e 29 35
e 29 38
e 29 39
e 29 41
e 29 43
e 29 45
e 29 46
e 29 47
e 29 48
e 29 49
e 29 50
e 30 33
e 30 35
e 30 36
e 30 39
e 30 44
e 30 45
e 30 46
e 30 49
e 30 50
e 31 35
e 31 37
e 31 38
e 31 39
e 31 42
e 31 43
e 31 45
e 31 47
e 31 49
e 31 50
e 32 34
e 32 37
e 32 38
e 32 40
e 32 41
e 32 43
e 32 45
e 32 47
e 32 48
e 32 50
e 33 35
e 33 38
e 33 40
e 33 43
e 33 47
e 34 37
e 34 40
e 34 42
e 34 44
e 34 45
e 34 46
e 35 36
e 35 42
e 35 43
e 35 45
e 35 47
e 35 50
e 36 38
e 36 39
e 36 40
e 36 45
e 36 46
e 36 47
e 36 48
e 37 41
e 37 44
e 37 46
e 37 48
e 37 49
e 38 41
e 38 42
e 38 43
e 38 45
e 38 49
e 38 50
e 39 41
e 39 43
e 39 45
e 39 46
e 39 48
e 39 49
e 40 41
e 40 42
e 40 44
e 40 48
e 40 49
e 41 43
e 41 44
e 41 45
e 41 47
e 41 49
e 42 43
e 42 44
e 42 46
e 43 44
e 43 46
e 43 48
e 43 50
e 44 47
e 44 49
e 44 50
e 45 46
e 45 49
e 46 47
e 46 48
e 47 50
e 48 50
e 49 50
